;; unsat

(declare-const x1 sl.list.loc)
(declare-const x2 sl.list.loc)
(declare-const x3 sl.list.loc)
(declare-const x4 sl.list.loc)
(declare-const x5 sl.list.loc)
(declare-const x6 sl.list.loc)
(declare-const x7 sl.list.loc)
(declare-const x8 sl.list.loc)
(declare-const x9 sl.list.loc)
(declare-const x10 sl.list.loc)

(assert (and (sl.sepcon (sl.sepcon (sl.sepcon (sl.sepcon (sl.sepcon (sl.sepcon (sl.list.eq sl.list.null sl.list.null)
 (sl.list.neq sl.list.null x1)
)
 (sl.list.neq sl.list.null x3)
)
 (sl.list.neq sl.list.null x5)
)
 (sl.list.neq sl.list.null x7)
)
 (sl.list.neq sl.list.null x9)
)
 (sl.sepcon (sl.sepcon (sl.sepcon (sl.sepcon (sl.list.next x9 x10)
 (sl.list.next x7 x8)
)
 (sl.list.next x5 x6)
)
 (sl.list.next x3 x4)
)
 (sl.list.next x1 x2)
)
)
 (not (sl.sepcon (sl.sepcon (sl.sepcon (sl.sepcon (sl.list.next x9 x10)
 (sl.list.next x7 x8)
)
 (sl.list.next x5 x6)
)
 (sl.list.next x3 x4)
)
 (sl.list.next x1 x2)
)
))
)

